Optimal - objective value 13.00000000
      0 x_0_0                       1                       0
      2 x_1_1                       1                       0
      4 x_2_1                       1                      -1
      9 x_3_3                       1                       1
     14 x_4_4                       1                       1
     20 x_5_5                       1                       1
     27 x_6_6                       1                       1
     34 x_7_6                       1                      -1
     41 x_8_5                       1                       0
     54 x_9_9                       1                       0
     65 x_10_10                     1                       1
     77 x_11_11                     1                       1
     90 x_12_12                     1                       0
     92 x_13_1                      1                       0
    114 x_14_9                      1                       0
    135 x_15_15                     1                       1
    142 x_16_6                      1                      -1
    170 x_17_17                     1                       1
    180 x_18_9                      1                       0
    209 x_19_19                     1                       1
    213 x_20_3                      1                       0
    234 x_21_3                      1                       0
    262 x_22_9                      1                       0
    287 x_23_11                     1                       0
    319 x_24_19                     1                       0
    328 x_25_3                      1                       0
    366 x_26_15                     1                       0
    382 x_27_4                      1                       0
    425 x_28_19                     1                       0
    446 x_29_11                     1                       0
    465 x_30_0                      1                       0
    502 x_31_6                      1                      -1
    533 x_32_5                      1                       0
    561 x_33_0                      1                       0
    598 x_34_3                      1                       0
    649 x_35_19                     1                       0
    670 x_36_4                      1                       0
    714 x_37_11                     1                       0
    752 x_38_11                     1                       0
    789 x_39_9                      1                       0
    832 x_40_12                     1                       0
    871 x_41_10                     1                       0
    920 x_42_17                     1                       0
    956 x_43_10                     1                       0
   1007 x_44_17                     1                       0
   1052 x_45_17                     1                       0
   1086 x_46_5                      1                       0
   1140 x_47_12                     1                       0
   1181 x_48_5                      1                       0
   1225 x_49_0                      1                       0
   1285 x_50_10                     1                       0
   1330 x_51_4                      1                       0
   1390 x_52_12                     1                       0
   1437 x_53_6                      1                       0
   1495 x_54_10                     1                       0
   1559 x_55_19                     1                       0
   1613 x_56_17                     1                       0
   1668 x_57_15                     1                       0
